
 102   30
  10   10   10   10   10   10   10   10   10   10   10   10   10   10   10   10   10   10   10   10   10   10   10   10   10   10   10   10   10   10

   0   0   0   0   0   0   0   0   0   0   0   0   0   0   0   0   0   0   0   0   0   0   0   0   0   0   0   0   0   0   0  29 2 3 4 5 6 7 8 9 10 11 12 13 14 15 16 17 18 19 20 23 25 26 27 29 30 31 34 36 41 
   8   0   0   0   0   0   0   0   0   1   0   0   0   0   0   0   0   0   0   0   0   0   0   0   0   1   1   0   0   0   0  20 99 98 92 73 71 67 65 63 61 60 56 52 50 47 45 43 42 39 35 32 
   5   0   0   0   0   0   0   0   1   0   0   0   0   0   0   0   0   0   1   0   0   0   0   0   0   0   0   0   0   0   0  11 98 66 62 51 49 48 42 37 33 24 22 
  10   0   0   0   0   0   0   0   0   0   0   2   2   0   0   0   1   0   0   0   0   0   0   0   5   9   0   0   0   0   0  13 100 98 65 63 53 52 50 47 44 39 37 32 21 
   5   0   0   0   0   5   0   0   0   0   0   0   5   0   1   0   0   0   0   0   0   0   0   0   0   0   0   0   0   0   1  15 101 100 97 66 65 64 63 59 55 54 53 45 40 33 28 
   8   2   0   0   0   0   0   0   0   0   2   2   0   0   0   0   0   0   0   0   0   0   0   0   0   0   0   0   0   4   4  15 101 99 98 97 92 73 62 56 52 51 50 48 43 39 24 
   9   0   0   0   1   0   0   0   0   0   0   0   0   0   0   0   0   0   0   1   0   0   0   0   0   0   0   0   0   0   0  12 99 73 65 62 60 56 51 50 48 42 28 22 
   6   0   0   0   0   0   0   0   0   0   0   6   0   0   0   0   0   0   7   0   4   0   1   0   0   5   0   0   0  10   0  16 101 99 98 95 92 73 71 67 61 60 56 50 49 43 42 39 
   4   0   0   0   0   0   0   0   0   0   0   0   0   0   0   0   0   0   0   9   0   0   0   0   0   6   6   0   0   0   0  19 100 97 96 88 73 72 70 69 67 66 65 64 62 61 58 56 53 43 37 
   8   0   0   0   0   0   0   0   0   0   0   9   0   0   0   2   0   0   0   0   0   0   6   0   0   0   0   0   0   0   0  24 100 99 97 96 94 93 92 91 89 75 72 71 70 69 67 65 63 62 61 60 59 58 56 53 
   2   7   0   0   0   0   0   2   0   0   0   0   0   0   0   0   5   0   0   0   0   0   5   0   0   0   0   0   0   0   0  15 100 97 96 95 92 91 73 69 58 57 56 55 48 44 38 
   1   0   0   0   0   0   0   0   0   0  10   0   0   0  10   0   6   1   0   0   0   0   0   0   0   0   0   0   0   0   5  16 97 96 92 73 72 71 69 65 63 62 61 58 56 51 45 43 
   4   0   0   0   0   0   0   0   0   0   5   0   9   0   0   3   0   0   0   0   0   1   0   0   6   0   0   0   1   0   0  16 99 98 95 93 91 86 73 72 71 66 60 56 53 50 49 47 
  10   0   0   0   0   0   0   0   0   0   0   0   0   0   0   0   0   0   0   0   5   0   0   0   0   0   0   0   0   0   0  12 99 97 92 73 71 65 60 58 57 46 43 39 
   1   0   0   0   0   5   0   0   0   0   0   7   0   0   0   5   0   0   0   0   0   0   0   0   0   0   0   0   0   0   5  18 100 98 97 96 93 92 91 87 73 71 70 67 64 61 59 56 52 47 
   5   0   0   0  10   0   0   0   0   0   0   0   0   0   0   0   4   0   0   0   0   0   6   0   0   4   5   0   0   0   0  13 101 100 98 96 87 73 72 66 61 59 52 47 42 
   1   0   0   0   5   0   0   5   0   0   0   0   0   2   4   0   0   0   0   0   0   0   0   0  10   0   0   0   0   0   0  12 100 98 91 88 66 61 59 56 52 50 46 40 
   3   0   0   0   0   0   0   0   0   0   0   0   0   0   0   5   0   6   0   0   4   0   0   0   0   0   0   0   0   5   0  14 92 88 83 73 71 67 62 61 60 59 58 56 53 42 
  10   0   1   0   0   0   0   0   0   0  10   0   0   7   0   0   0   0   0   0   0   0   0   0   0   9   0   0   0   0   0  15 100 99 97 96 94 92 86 73 71 64 60 56 50 48 45 
   6   0   0   0   0   0   0   0   0   2   0   0   0   5   0   0   0   0   3   0   0   0   0   3   0   8   0   0   0   0   0  18 97 94 92 91 90 88 86 83 79 72 71 69 64 62 60 58 49 48 
   1   0   0   0   3   0   0   0   0   0   0   0   0   0   8   0   0   0   0   0   0   0   7   0   0   0   0   0   0   3   7  11 92 88 84 82 72 67 62 58 51 43 42 
   6   0   0   0   0   0   1   0   0   0   0   0   0   0   5   0   0   0   8   0   8   0   0   0   5   0   0   0   0   0   0  17 96 95 94 93 92 90 87 85 83 72 71 69 68 64 59 58 45 
   2   4   0   0   0   0   0   0   0   7   0   0   0   0   0   0   0   0   7   0   8   7   0   0   0   0   0   0   0   0   0  12 99 97 96 85 84 80 72 68 58 54 51 43 
   9   0   0   0   0   0   0   0   0   0   0   0   0   0   0   0   0   0   0   0   0   0   0   0   0   0   0   0   0   6   0  20 100 95 94 93 90 89 88 86 84 83 79 75 71 70 69 67 63 61 60 58 
   3   0   0   0   0   0   0   0   0   0   0   0   0   0   0   8   0   0   0   0   0   0   0   0   0   0   0   0   0   0   0  12 100 99 92 89 88 82 73 72 71 68 56 43 
   8   0   0   0   0   0   0   4   0   0   0   0   0   0   0   0   0   0   0   5   0   0   0   0   0   0   0   0   0   5   0  14 96 92 91 89 88 86 71 70 69 68 65 64 60 52 
   8   0   0   0   0   4   0   0   0   0   0   0   7   0   0   0   0   0   0   0   0   0   0   0   0   0   0   0   0   0   0  19 101 99 98 96 94 92 91 89 88 86 83 82 80 77 73 72 69 68 56 
   7   0   0   0   0   0   0   0   0   0   0   0   0   0   0   0   0   0   0   0   0   0   8   0   0   0   0   0   0   0   0  16 98 93 92 91 90 89 88 87 86 83 79 75 68 61 58 49 
   7   5   0   0   9   0   7   3   0   0   8   5   0   0   0   4   0   0   0   0   4   0   0   0   0   0   4   0   0  10   8  13 98 97 94 92 87 86 80 73 71 67 58 53 51 
   5   0   0   0   0   0   0   0   0   0   0   0   0   5   5   0   0   7   6   8   0   7   0   0   0   0   0   0   0   0   0  20 98 97 95 94 93 91 90 89 88 86 84 83 82 79 78 73 71 70 69 68 
   9   0   0   0   0   0   0   0   0  10   0   0   0   0   0   0   6   0   0   8   0   0   0   0   0   0   0   0   0   0   0  18 99 96 95 94 92 91 89 86 85 84 83 79 75 74 70 68 60 58 
  10   0   0   0   9   0   0   5  10   0   0   0   0   0   0   0   0   0   0   5   0   0   0   0   0   0   0   0   0   0   0  14 93 91 90 88 87 84 83 79 78 75 69 62 58 48 
   5   0   0   0   0   0   0   7   0   9   0   0   0   0   0   0   0   0   0   0   0   6   0   0   0   0   0   0   0   0   7  12 93 92 89 86 82 80 78 74 73 71 56 50 
   9   0   6   0   0   0   0   0   0   0   0   3   0   0   0   0   0   0   0   0   0   0   0   0   0   0   0   0   0   0   0  12 98 93 91 90 88 84 80 79 78 69 66 50 
   2   0   0   0   0   0   0   0   0   0   0   4   0   0   0   0   0   0   0   0   0   0   0   0   0   0   0   0   6   0   0  13 100 91 89 88 87 86 85 83 82 77 74 68 55 
   3  10   4   0   0   0   0   0   0   0   2   0   0   0   0   0   0   0   0   0   0   0   0   3   0   0   0   0   8   0   0  14 100 98 96 95 92 86 85 83 80 79 75 72 69 58 
   2   0   0   0   0   0   0   0   0   0   7   0   0   0   0   0   0   0   0   6   0   0   0   0   0   0   2   0   0   0   6  13 99 93 92 89 84 83 82 79 77 75 71 68 59 
   5   0   6   0   0   0   0   0   7   0   0   0   0   0   6   0   0   0   0   0   0   6   0   0   0   0   0   0   0   0   0  13 99 98 94 88 85 83 82 81 79 77 75 70 59 
   4   4   0   1   0   0   0   0   0   0   0   0   0   0   0   0   0   0   0   0   0   6   0   0   0   7   0   0   0   0   0  11 96 91 88 87 83 81 77 72 69 68 64 
   5   0   8   0   3   0   0   0   0   5   0   0   0   9   0   0   0   0   0   0   0   0   0   0   0   6   6   0   0   0   0  11 93 90 86 85 84 80 79 74 73 68 60 
   1   9   0   9   9   0   0   0   0   0   0   6   0   0   0   8   0   0   0   0   0   0   0   0   0   9   0   0   0   0   7  12 95 93 91 88 86 83 80 79 77 75 72 69 
   5   0   0   0   0   0   0   4   0   0   8   0   3   0   0   0   0   0   0   0   0   0   0   0   0   0   0   0   0   0   4  11 97 93 91 89 85 79 78 75 70 69 68 
   9   0   0   0   0   0   0   0   0   0   0   0   0   0   0   0   0   4   0   0   0   0   4   0   0   0   0   0   0   0   0  10 94 93 91 87 83 79 77 76 75 59 
   4   0   0   0   0   0   0   0  10   5   0   0   0   0   0   0   0   0   0   0   3   0   6   0   9   0   0   0   0   0   0  10 88 85 82 80 78 77 75 74 71 68 
   3   0   0   0   0   0   0   0   0   0   0   0   0   0   0   0   0   0   0   0   0   0   0   0   0   4   0   0   0   0   0   9 91 89 88 82 81 79 76 75 70 
   8   0   0   0   0   0   0   0   0   0   0   0   0   0   0   0   0   5   0   0   0   0   0   5   0   0   0   0   0   0   0   9 95 94 89 85 81 78 77 75 70 
   3   0   0   0   0   0   0   0   0   0   0   0   0   0   0   0   0  10   0   0   0   0   0   6   0   0  10   0   0   0   0   6 94 89 88 75 69 58 
   3   0   0   5   0   0   5   0   0   0   9   0   0   0   0   0   7   0   0   0   0   0   0   0   0   0   0   0   0   0   0   8 89 85 82 81 80 77 74 68 
   4   0   6   0   0   0   0   0   0   0   0   0   0   0   0   0   5   0   0   0   0   0   0   0   0   0   0   0   0   0   0   8 96 84 82 81 78 76 74 70 
   6   0   0   8   0   0   0   0   0   0   0   7   0   0   0   0   0   0   0   0   0   7   0   0   0   6   0   0   0   0   0   5 87 83 75 68 58 
   6   0   0   0   0   0   5   0   0   0   0   0   0   0   0   0   0   0   0   0   0   0   0   0   0   0   0   0   0   0   0   7 93 90 83 79 76 75 74 
   1   0   0   0   0   0   0   0   0   0   0   0   0   0   0   0   0   0   0   0   0   0   0   0   0   0   0   0   0   0   0   7 90 85 84 83 79 77 74 
   4   0   0   0   0   6   0   7   0   0   0   0   5   0   0   0   0   4   0   0   0   0   0   0   0   0   0   0   0   0   0   6 84 82 81 79 78 68 
   6   0   0   0   0   0   0   0   0   6   9   0   0   0   0   4   0   0   0   5   0   0  10   0   0   0   0   0   0   0   0   6 95 94 92 88 82 69 
   2   0   0   0   0   0   0   0   0   0   0   0   0  10   0   0   0   0   0   6   0   0   0   0   0   0   0   0   0   0   7   5 90 84 80 75 72 
   4   0   0   8   0   0   3   0   0   0   0   0   0   0   6   0   0   0   0   0   0   0   0   0   0   0   6   0   0   0   0   4 90 85 84 79 
   5   5   0   0   0   0   0   7   0   0   5   0   0   0   0   6   0   0   0   0   7   0   5   0   0   0   0   0   0   7   6   4 87 84 80 74 
   5   0   0   0   0   0   0   0   4   0   0  10   6   0   0   0   0   0   0   0   0   0   4   0   0   0  10   0   0   0   0   3 81 77 76 
   5   0   0   0   0   0   0   0   0   0   0   5   9   0   0   0   0   0   0   0   0   0   0   4   0   0   0   0   8   2   0   3 86 78 74 
   2   6   0   0   0   0   0   0   3   0   0   0   0   0   8   0   0   0   6   0   0   0   0   0   5   0   0   0   0   3   0   3 87 82 78 
   9   0   6   0   0   0   0   0   0   0   0   0   0   0   0   0   0   0   0   0   7   0   0   0   0   0   0   0   0   0   0   3 82 77 74 
   3   0   5   0   0   0   0   0   0   6   0   4   0   0   0   0   0   4   0   0   0   0   0   0   0   0   0   0   0   7   0   3 95 77 74 
   1   0   0   0   0   0   0   0   0   0   0   0   0   5   9   9   0   0   0   0   0   0   0   0   0   0   0   0   0   7   0   3 85 82 77 
   5   0   0   0   6   0   0   0   0   0   0   0   0   0   0   0  10   0   0   0   0   0   0   0   6   0   0   0   0   0   0   2 84 75 
   4   0   0   0   0   0   0   0   0   0   0   0   0   0   0   6   0   0   0   0   0   0   0   0   5   8   0   0   0   0   0   2 83 79 
   9   7   0   0   7   0   0   0   0   0   0   0   0   0   0   0   0   0   0   9   7   0   0   0   0   0   0   0   0   8   0   2 92 77 
   8   0   0   0   7   0  10   0   0   0   0   8   0   0   0   0   0  10   0   7   0   5  10   0   0   0   7   1   7   0   0   1 68 
   6   0   0   0   0   0   0   0   0   0   0   0   0   0   0   0   0   0   5   0   0   0   0   7   0   0   0   0   0  10   0   1 76 
   2   0   0   0   0   0   9   5   0   0   2   0   0   0   0   0   0   0   0   0   0   0   6   0   0   0   6   0   0   4   0   1 74 
   7   0   0   0   0   0   0   0   0   0   0   0   0   0   0   0   0   0   0   0   0   0   0   0   0   0   0   0   0   0   0   1 80 
   9   0   9   0   0   0   0   0   0   0   0   8  10   0   0   0   0   0   0   0   0   0   0   0   0   0   0   0   0   0   6   1 81 
   2   0   0   0   0   0   0   8   0   0   0   0   0   0   7   0   0   5   0   0   6   0   0   0   3   0   0   0   0   0   0   1 78 
  10   0   0   0   0   0   0   0   0   0   0   0   0   5   0   0   0   0   0   0   0   6   4  10   0   0   0   0   0   0   0   1 75 
   6   0   0   0   0   0   0   0   0   0   0   0   0   0   0   0   0   0   6   0   0   9   0   0   6   0   0   0   0   0   0   1 102
   2   0   0   0   0   0   0   0   0   0   5  10   0   0   0   0   0   0   0   0   0   0   0   0   0   0   8   0   0   0   4   1 102
   8   0   6   0   0   0   0   6   0   8   0   3   3   0   0   0   0   0   8   0   0   0   0   0   6   0   0   0   0   4   0   1 102
   5   0   9   0   5   0   7   3   0   0   0   0   0   0   0   0   0   0   0   6   0   0   0   0   6   0   0   0   0   0   0   1 102
   5   0   0   0   0  10   0   0   0   0   0   0   0   0   0   0   6   0   8   0   0   0   0   0   0   4   0   0   0   0   0   1 102
   2   0   0   0   0   0   0   0   0   9   0   0   0   0   0   0   0   0   0   0   0   0   0   0   0   0   0   9   0   0   0   1 102
   3   0   0   0   0   0   6   0   0   0   0   6   0   0   0   0   0   0   0   0   0   0   7   0   0   0   0   0   0   0   0   1 102
   1   0   0   0   0   0   0   7   0   0   7   0   0   0   0   0   0   0   0   0   4   5   0   0   0   0   7   0   0   0   6   1 102
   9   0   0   0   0   0   0   0   0   0   0   0   0   0   0   0   0   0   7   7   0   8   0   0   4   0   0   0   0   9   9   1 102
  10   0   0   0   0   0   0  10   0   0   0   0   0   0   0   0   0   6   0   0   0   0   0   0   0   0   0   0   0   0   0   1 102
   9   0   0   0   0   0   0   0   0   0   0   0   0   0   0   7   0   0   0   0   0   5   0   0   8   0   0  10   6   0   0   1 102
   4   0   0   5   0   0   0   0   0   0   0   0   0   0   0   0   0   0   0   0   0   0   0   0   0   0   0   0   0   0  10   1 102
   9   0   0   0   0   0   0   8   0   0   0   0   0   0   5   0   0   0   0   0   0   0   0   0   0   0   0   0   0   0   0   1 102
   4   9   0   0   0   0   0   0   0   0   4   0   5   0   0   0   0   0   0   0   7   0   0   0   0   4   0   0   0   0   0   1 102
   9   0   0   8   0   0   0   0   0   0   0   0   0   6   9  10   0   0   0   0   0   0   0   8   0   0   0   0   0   0   0   1 102
   4   0   0   0   0   0  10   0   0   4   0   0   0   0   4   0   0   0   0   0   0   0   7   7   7   0   0   0   0   6   0   1 102
   2   0   0   0   0   0   0   0   0   0   5   0   0   0   0   0   8   0   0   0   0   0   0   0   5   0   0   0   0   0   0   1 102
   2   0   0   0   0   0   0   0   0   0   0   0   0   0   0   0   0   0   0   0   0   0   0   0   0   0   0   0   0   0   0   1 102
   7   0   0   0   0   0   0   0   0   0   0   0   7   0   0   0   0   0   0   0  10   0   0   0   0   0   0   0   0   0   0   1 102
   2   0   0   0   0   0   0  10   0   0   0   0   0   0   0   9   0   0   0   0   0   0   0   0   0   0   0   0   0   0   0   1 102
   5   0   0   0   0   0   5   7   0   0   5   0   0   0   0   0   0   0   0   0   0   0   0   0   0   0   0   0   0   4   0   1 102
   3   0   0   0   0   0   0   0   0   0   6   0   0   0   0   0   5   0   0   4   0   0   0   0   0   0   0   0   0   0   0   1 102
  10   0   0   0   4   0   0   0   0   0   0   0   0   0   0   0   0   0   0   0   0   0   0   0   0   6   0   4   0   0   0   1 102
   3   4   0   0   0   0   0   0   0   0   0   0   8   6   0   0   0   0   0   0   0   0   0   0   0   0   0   0   0   0   0   1 102
   7   0   0   4   0   0   0   0   0   0   0   0   0   0   0   0   9   0   0   0   0   0   0   7   0   0   0   0   0   0   0   1 102
  10   0   0   0   0   0   4   0   0   0   0   0   0   0   0   0   0   0   0   0   0   0   0   0   0   0   0   0   0   0   0   1 102
   1   6   0   0   0   0   0   0   7   0   5   9   5   0   3   0   0   0   0   4   0   0   0   6   0   0   0   0   7   0   0   1 102
   8   0   0   0   0   0   0   0   0   0   0   0   0   0   0   4   0  10   0   0   0   0   0   6   0   0   0   0   5   0   0   1 102
   0   0   0   0   0   0   0   0   0   0   0   0   0   0   0   0   0   0   0   0   0   0   0   0   0   0   0   0   0   0   0   0 
